Insert Title Here
1.000 # fixed lattice parameter unit
    3.872000000     0.000000000     0.000000000
    0.000000000     3.872000000     0.000000000
    0.000000000     0.000000000   110.000000000
O  Sr  Ru  Ti  Ba  
64  14  12  9  8  
Selective Dynamics # constraints enabled
Cartesian # direct lattice
    1.936000000     1.936000000    13.371999900 T T T
    1.936000000     0.000000000    15.350000100 T T T
    0.000000000     1.936000000    15.350000100 T T T
    1.936000000     1.936000000    17.327999500 T T T
    1.936000000     0.000000000    19.306000500 T T T
    0.000000000     1.936000000    19.306000500 T T T
    1.936000000     1.936000000    21.283999800 T T T
    1.936000000     0.000000000    23.261999200 T T T
    0.000000000     1.936000000    23.261999200 T T T
    1.936000000     1.936000000    25.240000200 T T T
    1.936000000     0.000000000    27.199546200 T T T
    0.000000000     1.936000000    27.199546200 T T T
    1.936000000     1.936000000    29.160908500 T T T
    1.936000000     0.000000000    31.126858600 T T T
    0.000000000     1.936000000    31.126858600 T T T
    1.936000000     1.936000000    33.092792300 T T T
    1.936000000     0.000000000    35.078418600 T T T
    0.000000000     1.936000000    35.078418600 T T T
    1.936000000     1.936000000    37.042631200 T T T
    1.936000000     0.000000000    38.936046700 T T T
    0.000000000     1.936000000    38.936046700 T T T
    1.936000000     1.936000000    40.959920300 T T T
    1.936000000     0.000000000    42.965311100 T T T
    0.000000000     1.936000000    42.965311100 T T T
    1.936000000     1.936000000    44.971364100 T T T
    1.936000000     0.000000000    46.977453200 T T T
    0.000000000     1.936000000    46.977453200 T T T
    1.936000000     1.936000000    48.983581700 T T T
    1.936000000     0.000000000    50.989579000 T T T
    0.000000000     1.936000000    50.989579000 T T T
    1.936000000     1.936000000    52.994740300 T T T
    1.936000000     0.000000000    54.999885300 T T T
    0.000000000     1.936000000    54.999885300 T T T
    1.936000000     1.936000000    57.005079400 T T T
    1.936000000     0.000000000    59.010440700 T T T
    0.000000000     1.936000000    59.010440700 T T T
    1.936000000     1.936000000    61.016503600 T T T
    1.936000000     0.000000000    63.022527100 T T T
    0.000000000     1.936000000    63.022527100 T T T
    1.936000000     1.936000000    65.028701400 T T T
    1.936000000     0.000000000    67.034902000 T T T
    0.000000000     1.936000000    67.034902000 T T T
    1.936000000     1.936000000    69.040263300 T T T
    1.936000000     0.000000000    71.064225400 T T T
    0.000000000     1.936000000    71.064225400 T T T
    1.936000000     1.936000000    72.957444200 T T T
    1.936000000     0.000000000    74.921611000 T T T
    0.000000000     1.936000000    74.921611000 T T T
    1.936000000     1.936000000    76.907138800 T T T
    1.936000000     0.000000000    78.873161100 T T T
    0.000000000     1.936000000    78.873161100 T T T
    1.936000000     1.936000000    80.839052200 T T T
    1.936000000     0.000000000    82.800373400 T T T
    0.000000000     1.936000000    82.800373400 T T T
    1.936000000     1.936000000    84.760003100 T T T
    1.936000000     0.000000000    86.737997500 T T T
    0.000000000     1.936000000    86.737997500 T T T
    1.936000000     1.936000000    88.715998500 T T T
    1.936000000     0.000000000    90.693999500 T T T
    0.000000000     1.936000000    90.693999500 T T T
    1.936000000     1.936000000    92.672000500 T T T
    1.936000000     0.000000000    94.650001500 T T T
    0.000000000     1.936000000    94.650001500 T T T
    1.936000000     1.936000000    96.628002500 T T T
    0.000000000     0.000000000    13.371999900 T T T
    0.000000000     0.000000000    17.327999500 T T T
    0.000000000     0.000000000    21.283999800 T T T
    0.000000000     0.000000000    25.240000200 T T T
    0.000000000     0.000000000    29.165655400 T T T
    0.000000000     0.000000000    33.101319100 T T T
    0.000000000     0.000000000    37.048505800 T T T
    0.000000000     0.000000000    72.951687600 T T T
    0.000000000     0.000000000    76.898556400 T T T
    0.000000000     0.000000000    80.833820100 T T T
    0.000000000     0.000000000    84.760003100 T T T
    0.000000000     0.000000000    88.715998500 T T T
    0.000000000     0.000000000    92.672000500 T T T
    0.000000000     0.000000000    96.628002500 T T T
    1.936000000     1.936000000    15.350000100 T T T
    1.936000000     1.936000000    19.306000500 T T T
    1.936000000     1.936000000    23.261999200 T T T
    1.936000000     1.936000000    27.201193600 T T T
    1.936000000     1.936000000    31.129592700 T T T
    1.936000000     1.936000000    35.086102800 T T T
    1.936000000     1.936000000    74.913893900 T T T
    1.936000000     1.936000000    78.870564700 T T T
    1.936000000     1.936000000    82.798754000 T T T
    1.936000000     1.936000000    86.737997500 T T T
    1.936000000     1.936000000    90.693999500 T T T
    1.936000000     1.936000000    94.650001500 T T T
    1.936000000     1.936000000    38.954667200 T T T
    1.936000000     1.936000000    42.964271900 T T T
    1.936000000     1.936000000    46.977132000 T T T
    1.936000000     1.936000000    50.989303600 T T T
    1.936000000     1.936000000    54.999937700 T T T
    1.936000000     1.936000000    59.010722600 T T T
    1.936000000     1.936000000    63.022894300 T T T
    1.936000000     1.936000000    67.035767400 T T T
    1.936000000     1.936000000    71.045414800 T T T
    0.000000000     0.000000000    40.960615300 T T T
    0.000000000     0.000000000    44.971374000 T T T
    0.000000000     0.000000000    48.983663600 T T T
    0.000000000     0.000000000    52.994910800 T T T
    0.000000000     0.000000000    57.005118700 T T T
    0.000000000     0.000000000    61.016503600 T T T
    0.000000000     0.000000000    65.028839100 T T T
    0.000000000     0.000000000    69.039719100 T T T
