NumberOfAtoms    107           # Number of atoms
NumberOfSpecies  5           # Number of species

%block ChemicalSpeciesLabel
 1 8 O
 2 38 Sr
 3 44 Ru
 4 22 Ti
 5 56 Ba
%endblock ChemicalSpeciesLabel

#(3) Lattice, coordinates, k-sampling

LatticeConstant       1.000000000 Ang
%block LatticeVectors
    3.872000000     0.000000000     0.000000000
    0.000000000     3.872000000     0.000000000
    0.000000000     0.000000000   110.000000000
%endblock LatticeVectors

AtomicCoordinatesFormat Ang
%block AtomicCoordinatesAndAtomicSpecies
     1.936000000     1.936000000    13.371999900    1    1
     0.000000000     0.000000000    13.371999900    2    2
     1.936000000     0.000000000    15.350000100    1    3
     0.000000000     1.936000000    15.350000100    1    4
     1.936000000     1.936000000    15.350000100    3    5
     1.936000000     1.936000000    17.327999500    1    6
     0.000000000     0.000000000    17.327999500    2    7
     1.936000000     0.000000000    19.306000500    1    8
     0.000000000     1.936000000    19.306000500    1    9
     1.936000000     1.936000000    19.306000500    3   10
     1.936000000     1.936000000    21.283999800    1   11
     0.000000000     0.000000000    21.283999800    2   12
     1.936000000     0.000000000    23.261999200    1   13
     0.000000000     1.936000000    23.261999200    1   14
     1.936000000     1.936000000    23.261999200    3   15
     1.936000000     1.936000000    25.240000200    1   16
     0.000000000     0.000000000    25.240000200    2   17
     1.936000000     0.000000000    27.199546200    1   18
     0.000000000     1.936000000    27.199546200    1   19
     1.936000000     1.936000000    27.201193600    3   20
     1.936000000     1.936000000    29.160908500    1   21
     0.000000000     0.000000000    29.165655400    2   22
     1.936000000     0.000000000    31.126858600    1   23
     0.000000000     1.936000000    31.126858600    1   24
     1.936000000     1.936000000    31.129592700    3   25
     1.936000000     1.936000000    33.092792300    1   26
     0.000000000     0.000000000    33.101319100    2   27
     1.936000000     0.000000000    35.078418600    1   28
     0.000000000     1.936000000    35.078418600    1   29
     1.936000000     1.936000000    35.086102800    3   30
     1.936000000     1.936000000    37.042631200    1   31
     0.000000000     0.000000000    37.048505800    2   32
     1.936000000     0.000000000    38.936046700    1   33
     0.000000000     1.936000000    38.936046700    1   34
     1.936000000     1.936000000    38.954667200    4   35
     1.936000000     1.936000000    40.959920300    1   36
     0.000000000     0.000000000    40.960615300    5   37
     1.936000000     1.936000000    42.964271900    4   38
     1.936000000     0.000000000    42.965311100    1   39
     0.000000000     1.936000000    42.965311100    1   40
     1.936000000     1.936000000    44.971364100    1   41
     0.000000000     0.000000000    44.971374000    5   42
     1.936000000     1.936000000    46.977132000    4   43
     1.936000000     0.000000000    46.977453200    1   44
     0.000000000     1.936000000    46.977453200    1   45
     1.936000000     1.936000000    48.983581700    1   46
     0.000000000     0.000000000    48.983663600    5   47
     1.936000000     1.936000000    50.989303600    4   48
     1.936000000     0.000000000    50.989579000    1   49
     0.000000000     1.936000000    50.989579000    1   50
     1.936000000     1.936000000    52.994740300    1   51
     0.000000000     0.000000000    52.994910800    5   52
     1.936000000     0.000000000    54.999885300    1   53
     0.000000000     1.936000000    54.999885300    1   54
     1.936000000     1.936000000    54.999937700    4   55
     1.936000000     1.936000000    57.005079400    1   56
     0.000000000     0.000000000    57.005118700    5   57
     1.936000000     0.000000000    59.010440700    1   58
     0.000000000     1.936000000    59.010440700    1   59
     1.936000000     1.936000000    59.010722600    4   60
     1.936000000     1.936000000    61.016503600    1   61
     0.000000000     0.000000000    61.016503600    5   62
     1.936000000     0.000000000    63.022527100    1   63
     0.000000000     1.936000000    63.022527100    1   64
     1.936000000     1.936000000    63.022894300    4   65
     1.936000000     1.936000000    65.028701400    1   66
     0.000000000     0.000000000    65.028839100    5   67
     1.936000000     0.000000000    67.034902000    1   68
     0.000000000     1.936000000    67.034902000    1   69
     1.936000000     1.936000000    67.035767400    4   70
     0.000000000     0.000000000    69.039719100    5   71
     1.936000000     1.936000000    69.040263300    1   72
     1.936000000     1.936000000    71.045414800    4   73
     1.936000000     0.000000000    71.064225400    1   74
     0.000000000     1.936000000    71.064225400    1   75
     0.000000000     0.000000000    72.951687600    2   76
     1.936000000     1.936000000    72.957444200    1   77
     1.936000000     1.936000000    74.913893900    3   78
     1.936000000     0.000000000    74.921611000    1   79
     0.000000000     1.936000000    74.921611000    1   80
     0.000000000     0.000000000    76.898556400    2   81
     1.936000000     1.936000000    76.907138800    1   82
     1.936000000     1.936000000    78.870564700    3   83
     1.936000000     0.000000000    78.873161100    1   84
     0.000000000     1.936000000    78.873161100    1   85
     0.000000000     0.000000000    80.833820100    2   86
     1.936000000     1.936000000    80.839052200    1   87
     1.936000000     1.936000000    82.798754000    3   88
     1.936000000     0.000000000    82.800373400    1   89
     0.000000000     1.936000000    82.800373400    1   90
     1.936000000     1.936000000    84.760003100    1   91
     0.000000000     0.000000000    84.760003100    2   92
     1.936000000     0.000000000    86.737997500    1   93
     0.000000000     1.936000000    86.737997500    1   94
     1.936000000     1.936000000    86.737997500    3   95
     1.936000000     1.936000000    88.715998500    1   96
     0.000000000     0.000000000    88.715998500    2   97
     1.936000000     0.000000000    90.693999500    1   98
     0.000000000     1.936000000    90.693999500    1   99
     1.936000000     1.936000000    90.693999500    3  100
     1.936000000     1.936000000    92.672000500    1  101
     0.000000000     0.000000000    92.672000500    2  102
     1.936000000     0.000000000    94.650001500    1  103
     0.000000000     1.936000000    94.650001500    1  104
     1.936000000     1.936000000    94.650001500    3  105
     1.936000000     1.936000000    96.628002500    1  106
     0.000000000     0.000000000    96.628002500    2  107
%endblock AtomicCoordinatesAndAtomicSpecies
