NumberOfAtoms    273           # Number of atoms
NumberOfSpecies  5           # Number of species

%block ChemicalSpeciesLabel
 1 79 Au
 2 7 N
 3 5 B
 4 16 S
 5 42 Mo
%endblock ChemicalSpeciesLabel

#(3) Lattice, coordinates, k-sampling

LatticeConstant       1.000000000 Ang
%block LatticeVectors
   12.501262800     0.000000000     0.000000000
   -6.250631200    10.826410996     0.000000000
    0.000000000     0.000000000    60.000000000
%endblock LatticeVectors

AtomicCoordinatesFormat Ang
%block AtomicCoordinatesAndAtomicSpecies
    -4.279069535     9.950446686     9.522041915    1    1
     6.972160131     3.454556403     9.522045875    1    2
    10.722570765     1.289285604     9.522047495    1    3
     1.971560713     7.785036583     9.522047675    1    4
     0.721544379     5.620020562     9.522047975    1    5
     9.472429705     3.454542199     9.522048875    1    6
     5.722067764     1.289323811     9.522048935    1    7
     3.221734976     5.619849039     9.522050075    1    8
     0.721470726     9.950437700     9.522050135    1    9
     4.471832143     7.785036616     9.522050315    1   10
     3.221833387     1.289486651     9.522050615    1   11
     4.471944987     3.454697103     9.522050855    1   12
     5.721948714     5.619698498     9.522051095    1   13
     5.721931854     9.950284138     9.522052175    1   14
     0.721542467     1.289424670     9.522052715    1   15
     8.222279094     5.619783334     9.522053375    1   16
     3.221671206     9.950232128     9.522053375    1   17
    -3.028886276     7.785224984     9.522053555    1   18
    -0.528629535     7.785214753     9.522053555    1   19
     1.971637922     3.454655314     9.522053795    1   20
    -1.778768550     5.619991244     9.522054035    1   21
    -1.778821138     9.950458486     9.522054215    1   22
    -0.528539543     3.454807988     9.522054755    1   23
     8.222339558     1.289303230     9.522055895    1   24
     6.972021172     7.784915446     9.522058475    1   25
     6.198673214     5.082556740    25.618603856    2   26
    -3.802253350     9.413005339    25.618663513    2   27
     7.448683129     7.247877882    25.618673150    2   28
    -1.302055189     9.413090987    25.618693302    2   29
     8.698830771     5.082626127    25.618724571    2   30
     4.948514472     2.917271499    25.618725090    2   31
     4.948512752     7.247799022    25.618730128    2   32
    -2.552197848     7.247746774    25.618740924    2   33
     7.448786222     2.917272668    25.618744963    2   34
     3.698371493     5.082581630    25.618746922    2   35
     1.198172543     9.413089082    25.618754839    2   36
     6.198641678     9.413164964    25.618762396    2   37
     6.198565567     0.752006232    25.618770153    2   38
     3.698432042     9.413112726    25.618801342    2   39
     2.448201292     7.247833266    25.618835489    2   40
    -0.052045273     7.247854021    25.618842806    2   41
     3.698312551     0.752012132    25.618855721    2   42
     8.698814889     0.752000018    25.618893907    2   43
    -1.302118451     5.082524618    25.618945808    2   44
     1.198083023     5.082615982    25.618965840    2   45
     9.948959936     2.917359366    25.618967719    2   46
     2.448235234     2.917290423    25.618969279    2   47
     1.198066529     0.751922555    25.618981794    2   48
    11.198981572     0.752053035    25.619002026    2   49
    -0.051998824     2.917250712    25.619083676    2   50
    -3.802392803     7.969606854    25.621313559    3   51
     7.448685240     5.804374359    25.621338710    3   52
     6.198562719     7.969682401    25.621339070    3   53
    -2.552268021    10.134900161    25.621372697    3   54
     4.948484291     5.804315690    25.621385852    3   55
    -0.051946985    10.134887592    25.621386092    3   56
    -1.302186667     7.969628236    25.621390091    3   57
     3.698385535     7.969603249    25.621393169    3   58
     1.198138795     7.969609539    25.621427477    3   59
    -5.052434153    10.134832528    25.621429796    3   60
    -2.552221609     5.804238541    25.621433914    3   61
     2.448336653    10.134841839    25.621442871    3   62
     4.948417836     1.473757236    25.621464703    3   63
     6.198607625     3.638981470    25.621465302    3   64
     4.948519181    10.134941767    25.621466822    3   65
     2.448259290     5.804275579    25.621482216    3   66
     3.698370091     3.638991994    25.621501169    3   67
     8.698825675     3.639063264    25.621507047    3   68
     7.448676084     1.473709600    25.621509366    3   69
    -0.051992051     5.804269808    25.621530638    3   70
     2.448146893     1.473772079    25.621543233    3   71
     9.948917318     1.473773584    25.621594414    3   72
     1.198120031     3.639000958    25.621607609    3   73
    -1.302075810     3.638935545    25.621623083    3   74
    -0.052023234     1.473662580    25.621638757    3   75
     6.199324941     3.638645170    28.754631724    2   76
     7.449430210     1.473341285    28.756017564    2   77
     8.699552867     3.638691236    28.756040676    2   78
     4.949162923     1.473314219    28.756259953    2   79
     7.449445360     5.803943067    28.756306696    2   80
     3.699030264     3.638628757    28.756368273    2   81
     4.949167416     5.803933854    28.756414336    2   82
     9.949653179     1.473391173    28.757537834    2   83
     2.448903113     1.473309672    28.757811491    2   84
     6.199336678     7.969210683    28.757926328    2   85
    -0.051289450    10.134374994    28.758005179    2   86
    -2.551494898     5.803891642    28.758005579    2   87
    -1.301426620     3.638646631    28.758129452    2   88
     2.448911367    10.134437354    28.758198186    2   89
     2.448877965     5.803921252    28.758243089    2   90
     1.198780148     3.638634679    28.758389315    2   91
    -2.551514795    10.134389869    28.758440815    2   92
    -3.801616519     7.969164065    28.758452811    2   93
     3.699037557     7.969194931    28.758480840    2   94
    -0.051319426     1.473328975    28.758556892    2   95
     4.949194562    10.134478786    28.758677646    2   96
    -5.051763417    10.134429104    28.758740623    2   97
    -0.051281998     5.803905012    28.759253350    2   98
     1.198796911     7.969157904    28.759297054    2   99
    -1.301344025     7.969135927    28.759300493    2  100
     7.449425467     2.916832564    28.756731576    3  101
     4.949096800     2.916798114    28.756893636    3  102
     6.199301665     5.082201742    28.756928862    3  103
     8.699550093     5.082201017    28.757840401    3  104
     6.199243948     0.751566095    28.757846718    3  105
     3.699045392     5.082120003    28.758033768    3  106
     9.949669827     2.916824444    28.758219098    3  107
     8.699552157     0.751590530    28.758243609    3  108
     3.699004421     0.751568834    28.758457009    3  109
     2.448883562     2.916819778    28.758472723    3  110
     7.449393250     7.247511776    28.758500473    3  111
     4.949170612     7.247477662    28.758578084    3  112
    11.199728897     0.751590898    28.758959981    3  113
     1.198790208     0.751554901    28.759105126    3  114
    -0.051317399     2.916798612    28.759131196    3  115
    -1.301445214     5.082090425    28.759165343    3  116
     6.199256947     9.412739172    28.759185536    3  117
     1.198835910     9.412728540    28.759186576    3  118
     3.699101934     9.412750020    28.759215085    3  119
    -1.301428882     9.412680504    28.759246793    3  120
    -2.551543451     7.247407204    28.759267785    3  121
     1.198798458     5.082086614    28.759272703    3  122
    -3.801636819     9.412665769    28.759276982    3  123
     2.448947343     7.247415432    28.759341357    3  124
    -0.051347472     7.247415865    28.759785351    3  125
     7.450834103     2.915933701    31.814563179    2  126
     6.200288058     5.081481992    31.815543012    2  127
     4.950115784     2.916093542    31.815581917    2  128
     6.200286503     0.750604233    31.823393427    2  129
     8.700761191     5.081528480    31.823409741    2  130
     3.699662411     5.081604871    31.824907579    2  131
     8.700807959     0.750566958    31.829171939    2  132
     9.951059348     2.916071045    31.829210445    2  133
     7.450186924     7.246906461    31.830095353    2  134
     3.699693628     0.750924273    31.830191237    2  135
     4.949866532     7.246820521    31.830524512    2  136
     2.449632744     2.916334246    31.830652824    2  137
    11.200928256     0.750806005    31.836676164    2  138
     6.200109758     9.412112453    31.837441717    2  139
     1.199547904     0.750975634    31.837486980    2  140
    -1.300483923     5.081639624    31.837555394    2  141
     1.199569847     9.411901554    31.837566150    2  142
     3.699944238     9.411927960    31.837615212    2  143
    -2.550839461     7.246910910    31.837632645    2  144
    -0.050343325     2.916224747    31.837647240    2  145
    -1.300765984     9.412084066    31.837703139    2  146
    -3.801106478     9.412204369    31.838124821    2  147
     2.449501811     7.246805537    31.838534627    2  148
     1.199484002     5.081737267    31.838622514    2  149
    -0.050608385     7.246882144    31.841689563    2  150
     6.200410238     3.637817490    31.815394628    3  151
     7.450532846     1.472237792    31.822262131    3  152
     8.700893152     3.637947007    31.822341222    3  153
     7.450510562     5.803377485    31.822730116    3  154
     4.950034199     1.472378254    31.822739472    3  155
     4.949902384     5.803310740    31.823262556    3  156
     3.699760388     3.638059591    31.823336768    3  157
     9.950904281     1.472481040    31.830671776    3  158
     6.199946821     7.968804400    31.831590392    3  159
     2.449424953     1.472715324    31.831675280    3  160
    -0.050670044    10.133765326    31.831940101    3  161
    -2.550772556     5.803461779    31.831959533    3  162
     2.449620053     5.803364038    31.832938686    3  163
     2.449826122    10.133645142    31.833714195    3  164
    -1.300416943     3.638046956    31.833767935    3  165
    -3.801069445     7.968814014    31.834055107    3  166
    -2.551076100    10.133891789    31.834115844    3  167
     3.699719920     7.968664036    31.834290379    3  168
     1.199443315     3.638071034    31.834350516    3  169
    -0.050520757     1.472692599    31.835407880    3  170
     4.949996793    10.133828271    31.835422594    3  171
    -5.051230288    10.133934705    31.835792855    3  172
    -1.300929271     7.968744790    31.837162901    3  173
     1.199456578     7.968639492    31.837383179    3  174
    -0.050641602     5.803395705    31.837417526    3  175
     6.249235863     3.608798151    34.810933959    2  176
     8.748646582     3.608849241    34.872119686    2  177
     7.498947036     1.444328885    34.872630134    2  178
     7.498980251     5.773301899    34.872875322    2  179
     4.999611406     1.444327326    34.873627040    2  180
     4.999444870     5.773362689    34.875651081    2  181
     3.749819119     3.608871717    34.875796186    2  182
     9.998573458     1.444367709    34.947054415    2  183
     6.249445358     7.938166069    34.949245832    2  184
     2.499894532     1.444101433    34.949903626    2  185
    -2.503640471     5.772690889    34.984910053    2  186
    -0.000999120    10.107302405    34.985806717    2  187
    -1.253049477     3.608652677    34.988939302    2  188
     2.498573015    10.106452261    34.989123233    2  189
     2.501130255     5.772958149    34.989480979    2  190
    -3.752241575     7.937963463    34.989560509    2  191
    -2.500570487    10.106004795    34.989799339    2  192
     3.750289284     7.938414643    34.990813879    2  193
     1.250314828     3.608662886    34.990980136    2  194
     4.998885999    10.104694496    35.024734154    2  195
    -0.001459940     1.444286565    35.025120329    2  196
    -5.001175776    10.104341263    35.026043503    2  197
    -1.251903669     7.939837883    35.049140078    2  198
    -0.001341985     5.773331801    35.050374655    2  199
     1.249861119     7.940101311    35.050824406    2  200
     7.499164116     2.887254549    34.836318076    3  201
     6.249352645     5.051848556    34.837377079    3  202
     4.999654662     2.887323437    34.837578204    3  203
     8.748411391     5.051571736    34.910483534    3  204
     6.249330394     0.723242948    34.911272838    3  205
     3.750339029     5.051542007    34.914265595    3  206
     9.998466530     2.887543787    34.929476129    3  207
     8.748648385     0.722872382    34.929687969    3  208
     7.499481228     7.216195007    34.930696351    3  209
     3.750217675     0.722652930    34.931093722    3  210
     4.999740789     7.216224791    34.931594574    3  211
     2.500359637     2.887371615    34.931894382    3  212
     3.749073350     9.383023499    35.011340618    3  213
    -0.001304985     2.887518215    35.011428145    3  214
    -3.750910183     9.382487690    35.011761500    3  215
    -2.502200286     7.216647540    35.012182262    3  216
    -1.252558214     5.051795464    35.012206333    3  217
    -1.250772159     9.384236999    35.012523934    3  218
     1.249078191     9.384510767    35.012606063    3  219
    11.248841670     0.722616500    35.012700588    3  220
     6.249650087     9.381674280    35.013527038    3  221
     1.249969965     0.722287366    35.013818769    3  222
     1.250194249     5.051808694    35.013867110    3  223
     2.500448219     7.216982152    35.013968672    3  224
    -0.000829382     7.217829882    35.057543406    3  225
     6.198120331     3.630012363    38.161900115    4  226
     7.764089522     0.917806026    38.165061249    4  227
     4.632866782     0.918250547    38.165110911    4  228
     9.330054187     3.630621651    38.165316314    4  229
     7.764093573     6.342078389    38.165471455    4  230
     3.067642866     3.630710439    38.165625718    4  231
     4.632825396     6.341635827    38.165812048    4  232
    10.890348292     0.922030426    38.168703043    4  233
     1.508315159     0.922467976    38.168806564    4  234
     6.198895385     9.046540508    38.168996933    4  235
    -3.177459431     9.043625778    38.170929808    4  236
    -0.051157982     3.631131077    38.170997942    4  237
     3.073910618     9.042977818    38.171063318    4  238
    -0.051831500     9.039297271    38.173195398    4  239
    -1.611273969     6.339299986    38.173456820    4  240
     1.508295257     6.338886298    38.173685894    4  241
     6.198905961     3.629538729    41.289032561    4  242
     9.321654895     3.629906816    41.293687334    4  243
     7.760529581     0.925598974    41.293696171    4  244
     4.637171373     0.925572308    41.293933962    4  245
     7.760001941     6.334489562    41.294112975    4  246
     3.075892500     3.629983987    41.294390031    4  247
     4.637516908     6.334655499    41.294591995    4  248
    10.885630741     0.924888750    41.296991535    4  249
     6.198795831     9.042183061    41.297197897    4  250
     1.511903884     0.924783095    41.297212932    4  251
    -3.177364491     9.043722902    41.298841481    4  252
    -0.051948418     3.630544015    41.298980229    4  253
     3.073734588     9.043970210    41.298983268    4  254
    -0.051836588     9.045333406    41.300737889    4  255
    -1.616111220     6.336258804    41.300888913    4  256
     1.512298568     6.336433715    41.301383367    4  257
     6.198662772     1.824586954    39.724979581    5  258
     7.762063065     4.532820994    39.725039718    5  259
     4.635237244     4.532919136    39.725571838    5  260
     9.324715065     1.825468928    39.728366310    5  261
     3.072973278     1.825728610    39.728947092    5  262
     6.198614973     7.239760791    39.729247339    5  263
     1.511024962     9.944963815    39.732864543    5  264
    -0.051610892     1.826455614    39.732867381    5  265
    -1.614745209     9.945112527    39.732899649    5  266
    -1.613935165     4.533045924    39.732955908    5  267
     4.636487970     9.945979928    39.733043875    5  268
    -4.740005203     9.946159592    39.733168908    5  269
    -3.176992574     7.239737482    39.733228886    5  270
     1.510535675     4.533144487    39.733581354    5  271
     3.073297804     7.239709506    39.733697830    5  272
    -0.051779065     7.239130088    39.738001535    5  273
%endblock AtomicCoordinatesAndAtomicSpecies
