Insert Title Here
1.000 # fixed lattice parameter unit
    2.722527000     2.722527000    -0.000000000
   -0.000000000     2.722527000     2.722527000
    2.722527000    -0.000000000     2.722527000
Si  
2  
Selective Dynamics # constraints enabled
Cartesian # direct lattice
    0.000001810     0.000001840     0.000001760 T T T
    1.361261660     1.361261640     1.361261690 T T T
